c gen rsets
c NSETS 10
c PERSET 10
c HARDNESS 1.00
c -A v B 61
c A v -B 78
c A v B 60
c -A v -B 71
p cnf 100 270
1 6 0
1 7 0
1 -8 0
-1 -9 0
-1 -10 0
2 -6 0
-2 7 0
-2 8 0
-2 9 0
2 10 0
-3 -6 0
-3 7 0
-3 -8 0
-3 9 0
3 -10 0
4 -6 0
4 -7 0
4 8 0
4 -9 0
-4 10 0
-5 6 0
-5 -7 0
5 -8 0
-5 9 0
5 10 0
11 -16 0
11 -17 0
11 18 0
11 -19 0
11 20 0
-12 16 0
12 -17 0
-12 18 0
-12 19 0
12 20 0
-13 16 0
13 -17 0
13 -18 0
-13 19 0
13 20 0
14 16 0
-14 -17 0
14 -18 0
-14 -19 0
-14 -20 0
15 16 0
15 17 0
-15 18 0
-15 19 0
15 -20 0
-21 -26 0
-21 -27 0
21 28 0
21 29 0
21 -30 0
22 -26 0
22 -27 0
-22 -28 0
-22 29 0
22 30 0
23 -26 0
-23 -27 0
-23 -28 0
-23 29 0
-23 -30 0
24 -26 0
-24 27 0
24 -28 0
24 -29 0
-24 -30 0
-25 -26 0
25 27 0
25 28 0
25 -29 0
25 30 0
-31 -36 0
31 37 0
-31 38 0
31 -39 0
-31 40 0
32 36 0
32 -37 0
32 -38 0
32 39 0
32 40 0
33 36 0
-33 37 0
33 -38 0
33 -39 0
33 -40 0
-34 -36 0
-34 37 0
-34 38 0
34 -39 0
34 -40 0
-35 -36 0
35 37 0
-35 -38 0
-35 -39 0
35 40 0
41 -46 0
41 47 0
-41 48 0
-41 49 0
-41 -50 0
-42 -46 0
42 -47 0
-42 48 0
-42 -49 0
42 50 0
-43 -46 0
-43 -47 0
43 48 0
43 -49 0
-43 50 0
-44 -46 0
44 47 0
-44 -48 0
-44 49 0
44 -50 0
-45 -46 0
-45 47 0
-45 -48 0
-45 -49 0
45 50 0
-51 56 0
51 -57 0
51 -58 0
51 -59 0
51 -60 0
52 56 0
-52 57 0
-52 58 0
52 -59 0
52 -60 0
-53 56 0
53 -57 0
53 58 0
53 59 0
53 60 0
54 -56 0
54 -57 0
54 -58 0
54 -59 0
54 -60 0
-55 -56 0
55 57 0
-55 -58 0
-55 59 0
-55 -60 0
-61 66 0
61 67 0
-61 -68 0
61 69 0
61 -70 0
-62 -66 0
62 67 0
62 68 0
-62 -69 0
-62 -70 0
-63 66 0
-63 -67 0
63 68 0
-63 69 0
63 -70 0
-64 -66 0
-64 -67 0
-64 68 0
64 69 0
-64 -70 0
-65 -66 0
65 -67 0
-65 68 0
-65 69 0
65 -70 0
-71 -76 0
71 77 0
-71 -78 0
-71 -79 0
71 -80 0
-72 -76 0
72 77 0
-72 -78 0
-72 -79 0
-72 -80 0
73 -76 0
73 -77 0
-73 78 0
-73 79 0
-73 -80 0
-74 76 0
-74 77 0
74 -78 0
74 -79 0
-74 -80 0
75 -76 0
-75 77 0
75 -78 0
75 -79 0
75 -80 0
-81 86 0
-81 -87 0
81 -88 0
-81 89 0
81 -90 0
-82 -86 0
82 -87 0
-82 88 0
82 89 0
82 -90 0
83 -86 0
-83 -87 0
83 88 0
-83 -89 0
-83 -90 0
-84 -86 0
-84 87 0
84 88 0
84 -89 0
84 90 0
85 86 0
-85 87 0
85 -88 0
85 89 0
85 90 0
-91 -96 0
-91 97 0
91 -98 0
91 -99 0
-91 -100 0
-92 -96 0
92 97 0
92 -98 0
-92 99 0
-92 -100 0
93 -96 0
93 -97 0
93 98 0
93 99 0
93 -100 0
-94 96 0
-94 -97 0
94 98 0
-94 -99 0
94 100 0
95 96 0
-95 97 0
-95 -98 0
95 -99 0
-95 -100 0
-94 -50 0
-3 -58 0
-85 79 0
42 -30 0
-42 70 0
23 8 0
-35 -79 0
32 -78 0
-31 87 0
24 69 0
-64 9 0
85 76 0
-25 87 0
73 98 0
92 -48 0
-61 88 0
-85 -40 0
-95 -60 0
43 -69 0
-35 18 0
